Data/Random/100RandomPoints.tsp
NAME : 100RandomPoints
COMMENT : 100 Random points test
TYPE : TSP
DIMENSION : 100
EDGE_WEIGHT_TYPE : EUC_2D
NODE_COORD_SECTION
1 2e+01 1.7e+01
2 3.2e+01 3.4e+01
3 9.6e+01 3.8e+01
4 2.5e+01 3.2e+01
5 2.3e+01 9.7e+01
6 5.8e+01 2.1e+01
7 1.5e+01 9.4e+01
8 5.3e+01 1.1e+01
9 1.4e+01 6.5e+01
10 9.1e+01 3.7e+01
11 1.2e+01 9.3e+01
12 7.7e+01 3.4e+01
13 2.3e+01 1.7e+01
14 4.4e+01 2.9e+01
15 6.7e+01 4.6e+01
16 6.7e+01 6.9e+01
17 5.1e+01 5.7e+01
18 8.2e+01 8.4e+01
19 7.1e+01 9.5e+01
20 1e+01 3.1e+01
21 5.4e+01 2.4e+01
22 7.1e+01 1.2e+01
23 7.5e+01 3.7e+01
24 5.2e+01 6.3e+01
25 1.3e+01 3e+01
26 6.5e+01 8.6e+01
27 1.1e+01 2.1e+01
28 5.7e+01 6.4e+01
29 8.6e+01 9.8e+01
30 9.5e+01 2.8e+01
31 3.5e+01 5.3e+01
32 8.5e+01 5.8e+01
33 3.4e+01 8.7e+01
34 1.6e+01 9.5e+01
35 5.8e+01 1.6e+01
36 7.6e+01 6.8e+01
37 7.6e+01 8.1e+01
38 1.8e+01 9.4e+01
39 2.4e+01 5.3e+01
40 6.6e+01 2.9e+01
41 1.9e+01 2.7e+01
42 6.9e+01 5.8e+01
43 1.8e+01 4.5e+01
44 8.6e+01 3.8e+01
45 2.2e+01 9.4e+01
46 6.9e+01 7.3e+01
47 5.1e+01 9.6e+01
48 6.9e+01 9.6e+01
49 6.1e+01 2.4e+01
50 2.6e+01 8.7e+01
51 6.7e+01 3.4e+01
52 8.4e+01 3.1e+01
53 7.1e+01 5e+01
54 6.3e+01 8.3e+01
55 4.7e+01 4.1e+01
56 2e+01 4.9e+01
57 4.9e+01 7.7e+01
58 9.1e+01 8e+01
59 5.7e+01 8e+01
60 7.4e+01 4.6e+01
61 3.3e+01 3e+01
62 3.9e+01 9.3e+01
63 3.9e+01 4.3e+01
64 7.6e+01 3.2e+01
65 6.1e+01 3e+01
66 2.9e+01 6.8e+01
67 3e+01 4.1e+01
68 2.3e+01 8.1e+01
69 9.3e+01 5.5e+01
70 6.6e+01 1.4e+01
71 6e+01 3.8e+01
72 7.7e+01 6.1e+01
73 7e+01 5e+01
74 4.3e+01 4.2e+01
75 2e+01 4.2e+01
76 4.9e+01 1.2e+01
77 8.7e+01 7.5e+01
78 1.8e+01 1.1e+01
79 1e+01 8.5e+01
80 7.3e+01 1.7e+01
81 7.2e+01 5.1e+01
82 4.7e+01 7.1e+01
83 8.8e+01 6.4e+01
84 7.7e+01 3.1e+01
85 4.7e+01 9.1e+01
86 2.9e+01 2e+01
87 4.1e+01 7.5e+01
88 5.9e+01 6.2e+01
89 1.6e+01 9.5e+01
90 3.2e+01 3.6e+01
91 5.9e+01 8e+01
92 5.3e+01 7.8e+01
93 8.7e+01 6.6e+01
94 6.3e+01 2.1e+01
95 5.7e+01 8.6e+01
96 9.6e+01 8e+01
97 4.2e+01 6.1e+01
98 5e+01 9.1e+01
99 5.7e+01 3.2e+01
100 3.3e+01 6.1e+01
EOF