Data/Random/100RandomPoints.out.tour
NAME : Data/Random/100RandomPoints.tsp
COMMENT : Optimal tour for Data/Random/100RandomPoints.tsp (tourLength = 751.4252888574996)
TYPE : TOUR
DIMENSION : 100
TOUR_SECTION
10
44
52
84
64
12
23
51
40
65
49
94
80
22
70
8
76
35
6
21
99
71
15
60
73
53
81
42
72
36
46
16
88
28
24
17
97
82
57
92
59
91
54
26
95
98
85
87
66
100
39
31
63
74
55
14
61
2
90
67
4
41
86
13
1
78
27
20
25
75
43
56
9
79
11
7
89
34
38
5
45
50
68
33
62
47
48
19
29
37
18
58
96
77
93
83
32
69
3
30
-1
EOF